language ESSENCE' 1.0

letting fixed be 
[
    [0,0,1,7,5,3,8,0,0],
    [0,5,0,0,0,0,0,0,7],
    [7,0,0,8,9,0,1,0,0],
    [0,0,0,6,0,1,5,7,0],
    [6,2,5,4,7,8,9,3,1],
    [0,1,7,9,0,5,4,0,0],
    [0,0,0,0,6,7,0,0,4],
    [0,7,0,0,0,0,0,1,0],
    [0,0,6,3,0,9,7,0,0]
]